benchmarks/VRPTW/TSPTW/solution/n80w40.005.txt.solution
1 12 21 22 25 77 19 75 43 50 23 5 34 63 68 56 70 18 16 42 35 62 8 67 61 72 40 30 33 36 3 14 46 9 64 58 47 32 78 27 51 15 11 65 74 37 57 6 39 55 52 13 20 66 2 69 71 17 45 53 4 76 59 60 41 79 26 73 54 7 10 48 24 29 44 80 28 31 81 38 49 
695
